\ Model OO_assignment_model
\ LP format - for model browsing. Use MPS format to capture full model detail.
Maximize
  2.568699938385705 x_0_0 + 3.666666666666667 x_0_1
   + 1.726450344149459 x_1_0 + 2.777777777777778 x_1_1
   + 0.9409867560689142 x_2_0 + 1.747455843125987 x_2_1
   + 1.56165407061378 x_3_0 + 2.137802457962398 x_3_1
   + 2.587436759379894 x_4_0 + 3.381817190927408 x_4_1
   + 1.507537688442211 x_5_0 + 2.706030150753769 x_5_1
   + 1.894987403947113 x_6_0 + 2.471135791295731 x_6_1
   + 1.940646976090014 x_7_0 + 3.140646976090014 x_7_1
   + 1.543828789211375 x_8_0 + 2.752272060979185 x_8_1
Subject To
 C_demand_0: x_0_0 + x_0_1 <= 1
 C_demand_1: x_1_0 + x_1_1 <= 1
 C_demand_2: x_2_0 + x_2_1 <= 1
 C_demand_3: x_3_0 + x_3_1 <= 1
 C_demand_4: x_4_0 + x_4_1 <= 1
 C_demand_5: x_5_0 + x_5_1 <= 1
 C_demand_6: x_6_0 + x_6_1 <= 1
 C_demand_7: x_7_0 + x_7_1 <= 1
 C_demand_8: x_8_0 + x_8_1 <= 1
 C_supply_0: x_0_0 + x_1_0 + x_2_0 + x_3_0 + x_4_0 + x_5_0 + x_6_0 + x_7_0
   + x_8_0 = 3
 C_supply_1: x_0_1 + x_1_1 + x_2_1 + x_3_1 + x_4_1 + x_5_1 + x_6_1 + x_7_1
   + x_8_1 = 2
 C_gs_0: x_0_0 + x_4_0 + x_7_0 + x_8_0 >= 2
 C_gs_1: x_0_1 + x_4_1 + x_7_1 + x_8_1 >= 2
 fyp: x_0_0 + x_0_1 = 1
Bounds
Binaries
 x_0_0 x_0_1 x_1_0 x_1_1 x_2_0 x_2_1 x_3_0 x_3_1 x_4_0 x_4_1 x_5_0 x_5_1
 x_6_0 x_6_1 x_7_0 x_7_1 x_8_0 x_8_1
End
 x_0_0            1
       x_4_0            1
       x_6_0            1
       x_7_1            1
       x_8_1            1